--- Job Hw#3 gams.gms Start 09/28/20 16:23:44 32.2.0 rc62c018 WEX-WEI x86 64bit/MS Windows
--- Applying:
    C:\GAMS\32\gmsprmNT.txt
--- GAMS Parameters defined
    Input "C:\Users\oboem\Documents\GitHub\CEE-5410-Walker\Hw#3 gams.gms"
    PageSize 0
    ScrDir C:\Users\oboem\Documents\GitHub\CEE-5410-Walker\225a\
    SysDir C:\GAMS\32\
    LogOption 3
    ErrMsg 1
    ErrorLog 99
    IDE 1
    LstTitleLeftAligned 1
GAMS 32.2.0   Copyright (C) 1987-2020 GAMS Development. All rights reserved
Licensee: Small MUD - 5 User License                     G200622/0001AP-GEN
          Utah State University, Utah Water Research Laboratory      DC7087
          C:\GAMS\32\gamslice.txt
--- Starting compilation
--- Hw#3 gams.gms(57) 3 Mb
--- Starting execution: elapsed 0:00:00.014
--- Hw#3 gams.gms(44) 4 Mb
--- Generating LP model PLANT_PRIMAL
--- Hw#3 gams.gms(49) 4 Mb
---   5 rows  3 columns  10 non-zeroes
--- Executing CPLEX (Solvelink=2): elapsed 0:00:00.089

IBM ILOG CPLEX   32.2.0 rc62c018 Released Aug 26, 2020 WEI x86 64bit/MS Window
--- GAMS/Cplex Link licensed for continuous and discrete problems.
Cplex 12.10.0.0

*** Error Cannot open parameter file "C:\Users\oboem\Documents\GitHub\CEE-5410-Walker\cplex.opt"
*** Error Error code = 2; No such file or directory
Reading data...
Starting Cplex...
Space for names approximately 0.00 Mb
Use option 'names no' to turn use of names off
Version identifier: 12.10.0.0 | 2019-11-26 | 843d4de2ae
CPXPARAM_Advance                                 0
CPXPARAM_Simplex_Display                         2
CPXPARAM_Threads                                 1
CPXPARAM_Parallel                                1
Tried aggregator 1 time.
LP Presolve eliminated 2 rows and 1 columns.
Reduced LP has 3 rows, 2 columns, and 6 nonzeros.
Presolve time = 0.00 sec. (0.00 ticks)

Iteration      Dual Objective            In Variable           Out Variable
     1  I            0.000000               X(Grain)Res_Constraint_pr slack
     2         1213333.333333                 X(Hay)Res_Constraint_pr slack
     3         1160000.000000Res_Constraint_pr slackRes_Constraint_pr slack
LP status(1): optimal
Cplex Time: 0.02sec (det. 0.01 ticks)

Optimal solution found.
Objective :     1160000.000000

--- Reading solution for model PLANT_PRIMAL
--- Executing after solve: elapsed 0:00:00.240
--- Generating LP model PLANT_DUAL
--- Hw#3 gams.gms(53) 4 Mb
---   3 rows  5 columns  12 non-zeroes
--- Executing CPLEX (Solvelink=2): elapsed 0:00:00.257

IBM ILOG CPLEX   32.2.0 rc62c018 Released Aug 26, 2020 WEI x86 64bit/MS Window
--- GAMS/Cplex Link licensed for continuous and discrete problems.
Cplex 12.10.0.0

Reading data...
Starting Cplex...
Space for names approximately 0.00 Mb
Use option 'names no' to turn use of names off
Version identifier: 12.10.0.0 | 2019-11-26 | 843d4de2ae
CPXPARAM_Advance                                 0
CPXPARAM_Simplex_Display                         2
CPXPARAM_Threads                                 1
CPXPARAM_Parallel                                1
Dual infeasible due to empty column 'Y(Jw)'.
Presolve time = 0.00 sec. (0.00 ticks)
LP status(4): unbounded or infeasible
Cplex Time: 0.00sec (det. 0.00 ticks)
Presolve found the problem infeasible or unbounded.
Rerunning with presolve turned off and solving with LPMETHOD=1
Version identifier: 12.10.0.0 | 2019-11-26 | 843d4de2ae
CPXPARAM_Advance                                 2
CPXPARAM_Simplex_Display                         2
CPXPARAM_Preprocessing_Presolve                  0
CPXPARAM_LPMethod                                1
CPXPARAM_Threads                                 1
CPXPARAM_Parallel                                1

Iteration           Objective            In Variable           Out Variable
     1  I            0.000000                 Y(Jlw)RES_CONS_DUAL(Hay slack
Switched to devex.
     2         1160000.000000                Y(Land)RES_CONS_DUAL(Gra slack
LP status(2): unbounded
Cplex Time: 0.00sec (det. 0.00 ticks)

Model has an unbounded ray.
--- Reading solution for model PLANT_DUAL
--- Executing after solve: elapsed 0:00:00.298
--- Hw#3 gams.gms(55) 4 Mb
--- GDX File C:\Users\oboem\Documents\GitHub\CEE-5410-Walker\HW3_Dual.gdx
--- Hw#3 gams.gms(57) 4 Mb
GDX2XLS          32.2.0 rc62c018 Released Aug 26, 2020 WEI x86 64bit/MS Window
Output file: C:\Users\oboem\Documents\GitHub\CEE
Output file: C:\Users\oboem\Documents\GitHub\CEE-5410-Walker\HW3_Dual.xlsx
*** Status: Normal completion
--- Job Hw#3 gams.gms Stop 09/28/20 16:23:46 elapsed 0:00:02.304
